19 965
535 8 493 8 396 9 228 10 178 22
535 8 493 8 396 9 228 10 178 22
535 8 493 8 396 9 228 10 178 22
535 8 493 8 396 9 228 10 178 22
525 7 477 7 391 7 243 9 99 11 915 15 758 21 604 30
521 7 443 7 347 7 188 9 44 11 869 18
535 8 491 8 398 9 236 10 97 15
529 7 485 7 342 11
528 7 485 7 368 7 122 9 951 13
520 7 475 7 386 7 248 12
520 7 474 7 386 7 236 10 59 16
525 7 482 7 365 7 115 9 943 13
525 7 482 7 365 7 115 9 943 13
525 7 479 7 355 7 106 9 931 13
525 7 479 7 355 7 106 9 931 13
525 7 479 7 355 7 106 9 931 13
525 7 482 7 365 7 115 9 943 13
525 7 482 7 365 7 115 9 943 13
525 7 476 7 357 7 158 9 8 11 846 15 690 20 570 28
